proyfinal/src/viki/013/experimentInOfficeAgust.take6.output/3515b849-9b21-4b0f-8987-e7f1c3e76f85.als.dat
{'cnf.clauses': '118081',
 'cnf.totvars': '69608',
 'conflict literals': '27',
 'conflicts': '18',
 'decisions': '3018',
 'memused.mb': '15.57',
 'outcome': 'UNSAT',
 'propagations': '30622',
 'restarts': '1',
 'solver.msecs': 27,
 'task.msecs': 106}
