proyfinal/src/viki/013/experimentInOfficeAgust.take6.output/3515b849-9b21-4b0f-8987-e7f1c3e76f85.als.out
Reading from standard input... Use '--help' for help.
============================[ Problem Statistics ]=============================
|                                                                             |
|  Number of variables:         69608                                         |
|  Number of clauses:          118081                                         |
|  Parse time:                   0.02 s                                       |
|                                                                             |
============================[ Search Statistics ]==============================
| Conflicts |          ORIGINAL         |          LEARNT          | Progress |
|           |    Vars  Clauses Literals |    Limit  Clauses Lit/Cl |          |
===============================================================================
===============================================================================
restarts              : 1
conflicts             : 18             (646 /sec)
decisions             : 3018           (0.00 % random) (108257 /sec)
propagations          : 30622          (1098429 /sec)
conflict literals     : 27             (0.00 % deleted)
Memory used           : 15.57 MB
CPU time              : 0.027878 s

UNSATISFIABLE
